n_vertices = 973;
adj = [|2,0,0,0
|1,3,0,0
|2,4,0,0
|3,5,0,0
|4,6,0,0
|5,7,0,0
|6,8,0,0
|7,9,11,0
|8,10,12,0
|9,13,0,0
|8,12,0,0
|9,11,13,15
|10,12,14,16
|13,17,0,0
|12,16,22,0
|13,15,17,23
|14,16,18,24
|17,25,0,0
|28,0,0,0
|21,31,0,0
|20,32,0,0
|15,23,33,0
|16,22,24,34
|17,23,25,35
|18,24,26,36
|25,37,0,0
|28,40,0,0
|19,27,29,41
|28,0,0,0
|31,43,0,0
|20,30,32,44
|21,31,45,0
|22,34,49,0
|23,33,35,50
|24,34,36,51
|25,35,37,52
|26,36,38,53
|37,54,0,0
|40,56,0,0
|27,39,41,57
|28,40,0,0
|43,59,0,0
|30,42,44,60
|31,43,45,61
|32,44,46,62
|45,47,63,0
|46,0,0,0
|49,65,0,0
|33,48,50,66
|34,49,51,67
|35,50,52,68
|36,51,53,69
|37,52,54,70
|38,53,55,71
|54,56,72,0
|39,55,57,73
|40,56,74,0
|59,0,0,0
|42,58,60,75
|43,59,61,76
|44,60,62,77
|45,61,63,78
|46,62,79,0
|65,81,0,0
|48,64,66,82
|49,65,67,83
|50,66,68,84
|51,67,69,85
|52,68,70,86
|53,69,71,87
|54,70,72,88
|55,71,73,89
|56,72,74,90
|57,73,91,0
|59,76,0,0
|60,75,77,93
|61,76,78,94
|62,77,79,95
|63,78,96,0
|81,99,0,0
|64,80,82,100
|65,81,83,101
|66,82,84,102
|67,83,85,103
|68,84,86,104
|69,85,87,105
|70,86,88,106
|71,87,89,107
|72,88,90,108
|73,89,91,109
|74,90,92,110
|91,111,0,0
|76,94,0,0
|77,93,95,113
|78,94,96,114
|79,95,97,115
|96,116,0,0
|99,120,0,0
|80,98,100,121
|81,99,101,122
|82,100,102,123
|83,101,103,124
|84,102,104,125
|85,103,105,126
|86,104,106,127
|87,105,107,128
|88,106,108,129
|89,107,109,130
|90,108,110,131
|91,109,111,132
|92,110,112,133
|111,134,0,0
|94,114,0,0
|95,113,115,135
|96,114,116,136
|97,115,117,137
|116,118,138,0
|117,119,139,0
|118,120,140,0
|98,119,121,141
|99,120,122,142
|100,121,123,143
|101,122,124,144
|102,123,125,145
|103,124,126,146
|104,125,127,147
|105,126,128,148
|106,127,129,149
|107,128,130,150
|108,129,131,151
|109,130,132,0
|110,131,133,0
|111,132,134,0
|112,133,0,0
|114,136,0,0
|115,135,137,152
|116,136,138,153
|117,137,139,154
|118,138,140,155
|119,139,141,156
|120,140,142,157
|121,141,143,158
|122,142,144,159
|123,143,145,160
|124,144,146,161
|125,145,147,162
|126,146,148,163
|127,147,149,164
|128,148,150,165
|129,149,151,166
|130,150,167,0
|136,153,168,0
|137,152,154,169
|138,153,155,170
|139,154,156,171
|140,155,157,172
|141,156,158,173
|142,157,159,174
|143,158,160,175
|144,159,161,176
|145,160,162,177
|146,161,163,178
|147,162,164,179
|148,163,165,180
|149,164,166,181
|150,165,167,182
|151,166,183,0
|152,169,193,0
|153,168,170,194
|154,169,171,195
|155,170,172,196
|156,171,173,197
|157,172,174,198
|158,173,175,199
|159,174,176,200
|160,175,177,201
|161,176,178,202
|162,177,179,203
|163,178,180,204
|164,179,181,205
|165,180,182,206
|166,181,183,207
|167,182,208,0
|185,209,0,0
|184,186,210,0
|185,187,211,0
|186,188,212,0
|187,213,0,0
|190,220,0,0
|189,221,0,0
|192,222,0,0
|191,193,223,0
|168,192,194,224
|169,193,195,225
|170,194,196,226
|171,195,197,227
|172,196,198,228
|173,197,199,229
|174,198,200,230
|175,199,201,231
|176,200,202,232
|177,201,203,233
|178,202,204,234
|179,203,205,235
|180,204,206,236
|181,205,207,237
|182,206,208,238
|183,207,239,0
|184,210,241,0
|185,209,211,242
|186,210,212,243
|187,211,213,244
|188,212,214,0
|213,215,0,0
|214,216,0,0
|215,245,0,0
|218,248,0,0
|217,219,249,0
|218,220,250,0
|189,219,221,251
|190,220,252,0
|191,223,255,0
|192,222,224,256
|193,223,225,257
|194,224,226,258
|195,225,227,259
|196,226,228,260
|197,227,229,261
|198,228,230,262
|199,229,231,263
|200,230,232,264
|201,231,233,265
|202,232,234,266
|203,233,235,267
|204,234,236,268
|205,235,237,269
|206,236,238,270
|207,237,239,271
|208,238,240,272
|239,241,273,0
|209,240,242,274
|210,241,243,275
|211,242,244,276
|212,243,277,0
|216,246,0,0
|245,278,0,0
|248,281,0,0
|217,247,249,282
|218,248,250,283
|219,249,251,284
|220,250,252,285
|221,251,286,0
|254,287,0,0
|253,255,288,0
|222,254,256,289
|223,255,257,290
|224,256,258,291
|225,257,259,292
|226,258,260,293
|227,259,261,294
|228,260,262,295
|229,261,263,296
|230,262,264,297
|231,263,265,298
|232,264,266,299
|233,265,267,300
|234,266,268,301
|235,267,269,302
|236,268,270,303
|237,269,271,304
|238,270,272,305
|239,271,273,0
|240,272,274,0
|241,273,275,306
|242,274,276,307
|243,275,277,308
|244,276,309,0
|246,279,310,0
|278,311,0,0
|281,312,0,0
|247,280,282,313
|248,281,283,314
|249,282,284,315
|250,283,285,316
|251,284,286,317
|252,285,318,0
|253,288,323,0
|254,287,289,324
|255,288,290,325
|256,289,291,326
|257,290,292,327
|258,291,293,328
|259,292,294,329
|260,293,295,330
|261,294,296,331
|262,295,297,332
|263,296,298,333
|264,297,299,334
|265,298,300,335
|266,299,301,336
|267,300,302,337
|268,301,303,338
|269,302,304,339
|270,303,305,340
|271,304,341,0
|274,307,342,0
|275,306,308,343
|276,307,309,344
|277,308,0,0
|278,311,345,0
|279,310,0,0
|280,313,0,0
|281,312,314,346
|282,313,315,347
|283,314,316,348
|284,315,317,349
|285,316,318,350
|286,317,319,351
|318,320,352,0
|319,321,353,0
|320,322,354,0
|321,323,355,0
|287,322,324,356
|288,323,325,357
|289,324,326,358
|290,325,327,359
|291,326,328,360
|292,327,329,361
|293,328,330,362
|294,329,331,363
|295,330,332,364
|296,331,333,365
|297,332,334,366
|298,333,335,367
|299,334,336,368
|300,335,337,369
|301,336,338,370
|302,337,339,371
|303,338,340,372
|304,339,341,373
|305,340,374,0
|306,343,375,0
|307,342,344,376
|308,343,377,0
|310,0,0,0
|313,347,0,0
|314,346,348,0
|315,347,349,378
|316,348,350,379
|317,349,351,380
|318,350,352,381
|319,351,353,382
|320,352,354,383
|321,353,355,384
|322,354,356,385
|323,355,357,386
|324,356,358,387
|325,357,359,388
|326,358,360,389
|327,359,361,390
|328,360,362,391
|329,361,363,392
|330,362,364,393
|331,363,365,394
|332,364,366,395
|333,365,367,396
|334,366,368,397
|335,367,369,398
|336,368,370,399
|337,369,371,400
|338,370,372,401
|339,371,373,402
|340,372,374,403
|341,373,404,0
|342,376,405,0
|343,375,377,406
|344,376,407,0
|348,379,0,0
|349,378,380,409
|350,379,381,410
|351,380,382,411
|352,381,383,412
|353,382,384,413
|354,383,385,414
|355,384,386,415
|356,385,387,416
|357,386,388,417
|358,387,389,418
|359,388,390,419
|360,389,391,420
|361,390,392,421
|362,391,393,422
|363,392,394,423
|364,393,395,424
|365,394,396,425
|366,395,397,426
|367,396,398,427
|368,397,399,428
|369,398,400,429
|370,399,401,430
|371,400,402,431
|372,401,403,432
|373,402,404,433
|374,403,434,0
|375,406,435,0
|376,405,407,436
|377,406,408,437
|407,438,0,0
|379,410,0,0
|380,409,411,442
|381,410,412,443
|382,411,413,444
|383,412,414,445
|384,413,415,446
|385,414,416,447
|386,415,417,448
|387,416,418,449
|388,417,419,450
|389,418,420,451
|390,419,421,452
|391,420,422,453
|392,421,423,454
|393,422,424,455
|394,423,425,456
|395,424,426,457
|396,425,427,458
|397,426,428,459
|398,427,429,460
|399,428,430,461
|400,429,431,462
|401,430,432,463
|402,431,433,464
|403,432,434,465
|404,433,0,0
|405,436,467,0
|406,435,437,468
|407,436,438,469
|408,437,439,470
|438,440,471,0
|439,472,0,0
|474,0,0,0
|410,443,476,0
|411,442,444,477
|412,443,445,478
|413,444,446,479
|414,445,447,480
|415,446,448,481
|416,447,449,482
|417,448,450,483
|418,449,451,484
|419,450,452,485
|420,451,453,486
|421,452,454,487
|422,453,455,488
|423,454,456,489
|424,455,457,490
|425,456,458,491
|426,457,459,492
|427,458,460,493
|428,459,461,494
|429,460,462,495
|430,461,463,496
|431,462,464,497
|432,463,465,498
|433,464,499,0
|467,0,0,0
|435,466,468,500
|436,467,469,501
|437,468,470,502
|438,469,471,503
|439,470,472,504
|440,471,0,0
|474,506,0,0
|441,473,475,507
|474,508,0,0
|442,477,512,0
|443,476,478,513
|444,477,479,514
|445,478,480,515
|446,479,481,516
|447,480,482,517
|448,481,483,518
|449,482,484,519
|450,483,485,520
|451,484,486,521
|452,485,487,522
|453,486,488,523
|454,487,489,524
|455,488,490,525
|456,489,491,526
|457,490,492,527
|458,491,493,528
|459,492,494,529
|460,493,495,530
|461,494,496,531
|462,495,497,532
|463,496,498,533
|464,497,499,534
|465,498,535,0
|467,501,537,0
|468,500,502,538
|469,501,503,539
|470,502,504,540
|471,503,0,0
|506,541,0,0
|473,505,507,542
|474,506,508,543
|475,507,509,544
|508,545,0,0
|511,547,0,0
|510,512,548,0
|476,511,513,549
|477,512,514,550
|478,513,515,551
|479,514,516,552
|480,515,517,553
|481,516,518,554
|482,517,519,555
|483,518,520,556
|484,519,521,557
|485,520,522,558
|486,521,523,559
|487,522,524,560
|488,523,525,561
|489,524,526,562
|490,525,527,563
|491,526,528,564
|492,527,529,565
|493,528,530,0
|494,529,531,0
|495,530,532,566
|496,531,533,567
|497,532,534,568
|498,533,535,569
|499,534,536,570
|535,571,0,0
|500,538,573,0
|501,537,539,574
|502,538,540,575
|503,539,0,0
|505,542,576,0
|506,541,543,577
|507,542,544,578
|508,543,545,579
|509,544,580,0
|547,584,0,0
|510,546,548,585
|511,547,549,586
|512,548,550,587
|513,549,551,588
|514,550,552,589
|515,551,553,590
|516,552,554,591
|517,553,555,592
|518,554,556,593
|519,555,557,594
|520,556,558,595
|521,557,559,596
|522,558,560,597
|523,559,561,598
|524,560,562,599
|525,561,563,600
|526,562,564,601
|527,563,565,602
|528,564,603,0
|531,567,604,0
|532,566,568,605
|533,567,569,606
|534,568,570,607
|535,569,571,608
|536,570,572,609
|571,610,0,0
|537,574,612,0
|538,573,575,613
|539,574,0,0
|541,577,614,0
|542,576,578,615
|543,577,579,616
|544,578,580,617
|545,579,581,618
|580,619,0,0
|583,622,0,0
|582,584,623,0
|546,583,585,624
|547,584,586,625
|548,585,587,626
|549,586,588,627
|550,587,589,628
|551,588,590,629
|552,589,591,630
|553,590,592,631
|554,591,593,632
|555,592,594,633
|556,593,595,634
|557,594,596,635
|558,595,597,636
|559,596,598,637
|560,597,599,638
|561,598,600,639
|562,599,601,640
|563,600,602,641
|564,601,603,642
|565,602,0,0
|566,605,0,0
|567,604,606,643
|568,605,607,644
|569,606,608,645
|570,607,609,646
|571,608,610,647
|572,609,611,648
|610,612,649,0
|573,611,613,650
|574,612,0,0
|576,615,0,0
|577,614,616,651
|578,615,617,652
|579,616,618,653
|580,617,619,654
|581,618,620,655
|619,621,656,0
|620,622,657,0
|582,621,623,658
|583,622,624,659
|584,623,625,660
|585,624,626,661
|586,625,627,662
|587,626,628,663
|588,627,629,664
|589,628,630,665
|590,629,631,666
|591,630,632,667
|592,631,633,668
|593,632,634,669
|594,633,635,670
|595,634,636,671
|596,635,637,672
|597,636,638,673
|598,637,639,674
|599,638,640,675
|600,639,641,676
|601,640,642,0
|602,641,0,0
|605,644,0,0
|606,643,645,0
|607,644,646,677
|608,645,647,678
|609,646,648,679
|610,647,649,680
|611,648,650,681
|612,649,0,0
|615,652,0,0
|616,651,653,682
|617,652,654,683
|618,653,655,684
|619,654,656,685
|620,655,657,686
|621,656,658,687
|622,657,659,688
|623,658,660,689
|624,659,661,690
|625,660,662,691
|626,661,663,692
|627,662,664,693
|628,663,665,694
|629,664,666,695
|630,665,667,696
|631,666,668,697
|632,667,669,698
|633,668,670,699
|634,669,671,700
|635,670,672,701
|636,671,673,702
|637,672,674,703
|638,673,675,704
|639,674,676,705
|640,675,706,0
|645,678,707,0
|646,677,679,708
|647,678,680,709
|648,679,681,710
|649,680,0,0
|652,683,0,0
|653,682,684,711
|654,683,685,712
|655,684,686,713
|656,685,687,714
|657,686,688,715
|658,687,689,716
|659,688,690,717
|660,689,691,718
|661,690,692,719
|662,691,693,720
|663,692,694,721
|664,693,695,722
|665,694,696,723
|666,695,697,724
|667,696,698,725
|668,697,699,726
|669,698,700,727
|670,699,701,728
|671,700,702,729
|672,701,703,730
|673,702,704,731
|674,703,705,732
|675,704,706,733
|676,705,734,0
|677,708,736,0
|678,707,709,737
|679,708,710,738
|680,709,0,0
|683,712,0,0
|684,711,713,739
|685,712,714,740
|686,713,715,741
|687,714,716,742
|688,715,717,743
|689,716,718,744
|690,717,719,745
|691,718,720,746
|692,719,721,747
|693,720,722,748
|694,721,723,749
|695,722,724,750
|696,723,725,751
|697,724,726,752
|698,725,727,753
|699,726,728,754
|700,727,729,755
|701,728,730,756
|702,729,731,757
|703,730,732,758
|704,731,733,759
|705,732,734,760
|706,733,761,0
|736,765,0,0
|707,735,737,766
|708,736,738,0
|709,737,0,0
|712,740,0,0
|713,739,741,767
|714,740,742,768
|715,741,743,769
|716,742,744,770
|717,743,745,771
|718,744,746,772
|719,745,747,773
|720,746,748,774
|721,747,749,775
|722,748,750,776
|723,749,751,777
|724,750,752,778
|725,751,753,779
|726,752,754,780
|727,753,755,781
|728,754,756,782
|729,755,757,783
|730,756,758,784
|731,757,759,785
|732,758,760,786
|733,759,761,787
|734,760,762,788
|761,763,789,0
|762,790,0,0
|765,795,0,0
|735,764,766,796
|736,765,0,0
|740,768,0,0
|741,767,769,797
|742,768,770,798
|743,769,771,799
|744,770,772,800
|745,771,773,801
|746,772,774,802
|747,773,775,803
|748,774,776,804
|749,775,777,805
|750,776,778,806
|751,777,779,807
|752,778,780,808
|753,779,781,809
|754,780,782,810
|755,781,783,811
|756,782,784,0
|757,783,785,0
|758,784,786,812
|759,785,787,813
|760,786,788,814
|761,787,789,815
|762,788,790,816
|763,789,791,817
|790,792,818,0
|791,793,819,0
|792,794,820,0
|793,795,821,0
|764,794,796,822
|765,795,0,0
|768,798,0,0
|769,797,799,823
|770,798,800,824
|771,799,801,825
|772,800,802,826
|773,801,803,827
|774,802,804,828
|775,803,805,829
|776,804,806,830
|777,805,807,831
|778,806,808,832
|779,807,809,833
|780,808,810,834
|781,809,811,835
|782,810,836,0
|785,813,0,0
|786,812,814,837
|787,813,815,838
|788,814,816,839
|789,815,817,840
|790,816,818,841
|791,817,819,842
|792,818,820,843
|793,819,821,844
|794,820,822,845
|795,821,0,0
|798,824,0,0
|799,823,825,846
|800,824,826,847
|801,825,827,848
|802,826,828,849
|803,827,829,850
|804,828,830,851
|805,829,831,852
|806,830,832,853
|807,831,833,854
|808,832,834,855
|809,833,835,856
|810,834,836,857
|811,835,0,0
|813,838,858,0
|814,837,839,859
|815,838,840,860
|816,839,841,861
|817,840,842,862
|818,841,843,863
|819,842,844,864
|820,843,845,865
|821,844,0,0
|824,847,0,0
|825,846,848,866
|826,847,849,867
|827,848,850,868
|828,849,851,869
|829,850,852,870
|830,851,853,871
|831,852,854,872
|832,853,855,873
|833,854,856,874
|834,855,857,0
|835,856,0,0
|837,859,875,0
|838,858,860,876
|839,859,861,877
|840,860,862,878
|841,861,863,879
|842,862,864,880
|843,863,865,881
|844,864,0,0
|847,867,0,0
|848,866,868,882
|849,867,869,883
|850,868,870,884
|851,869,871,885
|852,870,872,886
|853,871,873,887
|854,872,874,888
|855,873,889,0
|858,876,0,0
|859,875,877,890
|860,876,878,891
|861,877,879,892
|862,878,880,893
|863,879,881,894
|864,880,0,0
|867,883,0,0
|868,882,884,895
|869,883,885,896
|870,884,886,897
|871,885,887,898
|872,886,888,899
|873,887,889,900
|874,888,901,0
|876,891,904,0
|877,890,892,905
|878,891,893,906
|879,892,894,907
|880,893,0,0
|883,896,0,0
|884,895,897,908
|885,896,898,909
|886,897,899,910
|887,898,900,911
|888,899,901,912
|889,900,902,913
|901,903,914,0
|902,915,0,0
|890,905,917,0
|891,904,906,918
|892,905,907,919
|893,906,0,0
|896,909,0,0
|897,908,910,920
|898,909,911,921
|899,910,912,922
|900,911,913,923
|901,912,914,924
|902,913,915,925
|903,914,916,926
|915,927,0,0
|904,918,932,0
|905,917,919,933
|906,918,0,0
|909,921,0,0
|910,920,922,934
|911,921,923,935
|912,922,924,936
|913,923,925,937
|914,924,926,938
|915,925,927,939
|916,926,928,940
|927,929,941,0
|928,930,942,0
|929,931,943,0
|930,932,944,0
|917,931,933,945
|918,932,0,0
|921,935,0,0
|922,934,936,946
|923,935,937,947
|924,936,938,948
|925,937,939,949
|926,938,940,950
|927,939,941,951
|928,940,942,952
|929,941,943,953
|930,942,944,954
|931,943,945,955
|932,944,0,0
|935,947,0,0
|936,946,948,956
|937,947,949,957
|938,948,950,958
|939,949,951,959
|940,950,952,960
|941,951,953,961
|942,952,954,962
|943,953,955,963
|944,954,0,0
|947,957,0,0
|948,956,958,964
|949,957,959,965
|950,958,960,966
|951,959,961,967
|952,960,962,968
|953,961,963,969
|954,962,0,0
|957,965,0,0
|958,964,966,970
|959,965,967,971
|960,966,968,972
|961,967,969,973
|962,968,0,0
|965,971,0,0
|966,970,972,0
|967,971,973,0
|968,972,0,0
|];
max_adj = 4;
